NAME: tsp_100
COMMENT: Random TSP instance
TYPE: TSP
DIMENSION: 50
EDGE_WEIGHT_TYPE: EUC_2D
NODE_COORD_SECTION
1 625 133
2 546 356
3 455 831
4 452 438
5 455 835
6 520 551
7 122 397
8 661 671
9 94 85
10 849 549
11 488 34
12 99 899
13 947 403
14 420 997
15 74 740
16 272 238
17 635 437
18 377 203
19 894 393
20 657 810
21 597 133
22 584 618
23 743 57
24 344 209
25 828 158
26 668 926
27 285 959
28 494 189
29 503 25
30 477 858
31 700 306
32 546 126
33 607 1000
34 886 715
35 415 899
36 331 552
37 771 6
38 632 952
39 648 526
40 376 373
41 126 15
42 585 635
43 695 27
44 300 635
45 308 13
46 388 916
47 970 237
48 162 944
49 449 568
50 826 657
